\ This file has been generated by DOcplex
\ ENCODING=ISO-8859-1
\Problem name: LABS of size 6

Minimize
 obj: [ 2 C_1^2 + 2 C_2^2 + 2 C_3^2 + 2 C_4^2 + 2 C_5^2 ]/2
Subject To
 c1: - 4 b_1 - 4 b_2 - 4 b_3 - 4 b_4 - 2 b_5 - 2 b_6 + 4 b_y_1_2 + 4 b_y_2_3
     + 4 b_y_3_4 + 4 b_y_4_5 + 4 b_y_5_6 - C_1 = -5
 c2: - 2 b_1 - 4 b_2 - 4 b_3 - 2 b_4 - 2 b_5 - 2 b_6 + 4 b_y_1_3 + 4 b_y_2_4
     + 4 b_y_3_5 + 4 b_y_4_6 - C_2 = -4
 c3: - 2 b_1 - 2 b_2 - 2 b_3 - 2 b_4 - 2 b_5 - 2 b_6 + 4 b_y_1_4 + 4 b_y_2_5
     + 4 b_y_3_6 - C_3 = -3
 c4: - 2 b_1 - 2 b_4 - 2 b_5 - 2 b_6 + 4 b_y_1_5 + 4 b_y_2_6 - C_4 = -2
 c5: - 2 b_5 - 2 b_6 + 4 b_y_1_6 - C_5 = -1
 c6: b_y_1_2 - 0.500000000000 b_1 - 0.500000000000 b_2 <= 0
 c7: b_y_1_2 - b_1 - b_2 >= -1
 c8: b_y_2_3 - 0.500000000000 b_2 - 0.500000000000 b_3 <= 0
 c9: b_y_2_3 - b_2 - b_3 >= -1
 c10: b_y_3_4 - 0.500000000000 b_3 - 0.500000000000 b_4 <= 0
 c11: b_y_3_4 - b_3 - b_4 >= -1
 c12: b_y_4_5 - 0.500000000000 b_4 - 0.500000000000 b_5 <= 0
 c13: b_y_4_5 - b_4 - b_5 >= -1
 c14: b_y_5_6 - 0.500000000000 b_5 - 0.500000000000 b_6 <= 0
 c15: b_y_5_6 - b_5 - b_6 >= -1
 c16: b_y_1_3 - 0.500000000000 b_1 - 0.500000000000 b_3 <= 0
 c17: b_y_1_3 - b_1 - b_3 >= -1
 c18: b_y_2_4 - 0.500000000000 b_2 - 0.500000000000 b_4 <= 0
 c19: b_y_2_4 - b_2 - b_4 >= -1
 c20: b_y_3_5 - 0.500000000000 b_3 - 0.500000000000 b_5 <= 0
 c21: b_y_3_5 - b_3 - b_5 >= -1
 c22: b_y_4_6 - 0.500000000000 b_4 - 0.500000000000 b_6 <= 0
 c23: b_y_4_6 - b_4 - b_6 >= -1
 c24: b_y_1_4 - 0.500000000000 b_1 - 0.500000000000 b_4 <= 0
 c25: b_y_1_4 - b_1 - b_4 >= -1
 c26: b_y_2_5 - 0.500000000000 b_2 - 0.500000000000 b_5 <= 0
 c27: b_y_2_5 - b_2 - b_5 >= -1
 c28: b_y_3_6 - 0.500000000000 b_3 - 0.500000000000 b_6 <= 0
 c29: b_y_3_6 - b_3 - b_6 >= -1
 c30: b_y_1_5 - 0.500000000000 b_1 - 0.500000000000 b_5 <= 0
 c31: b_y_1_5 - b_1 - b_5 >= -1
 c32: b_y_2_6 - 0.500000000000 b_2 - 0.500000000000 b_6 <= 0
 c33: b_y_2_6 - b_2 - b_6 >= -1
 c34: b_y_1_6 - 0.500000000000 b_1 - 0.500000000000 b_6 <= 0
 c35: b_y_1_6 - b_1 - b_6 >= -1

Bounds
 0 <= b_1 <= 1
 0 <= b_2 <= 1
 0 <= b_3 <= 1
 0 <= b_4 <= 1
 0 <= b_5 <= 1
 0 <= b_6 <= 1
 0 <= b_y_1_2 <= 1
 0 <= b_y_2_3 <= 1
 0 <= b_y_3_4 <= 1
 0 <= b_y_4_5 <= 1
 0 <= b_y_5_6 <= 1
 0 <= b_y_1_3 <= 1
 0 <= b_y_2_4 <= 1
 0 <= b_y_3_5 <= 1
 0 <= b_y_4_6 <= 1
 0 <= b_y_1_4 <= 1
 0 <= b_y_2_5 <= 1
 0 <= b_y_3_6 <= 1
 0 <= b_y_1_5 <= 1
 0 <= b_y_2_6 <= 1
 0 <= b_y_1_6 <= 1
 -5 <= C_1 <= 5
 -4 <= C_2 <= 4
 -3 <= C_3 <= 3
 -2 <= C_4 <= 2
 -1 <= C_5 <= 1

Binaries
 b_1 b_2 b_3 b_4 b_5 b_6 b_y_1_2 b_y_2_3 b_y_3_4 b_y_4_5 b_y_5_6 b_y_1_3 b_y_2_4
 b_y_3_5 b_y_4_6 b_y_1_4 b_y_2_5 b_y_3_6 b_y_1_5 b_y_2_6 b_y_1_6

Generals
 C_1 C_2 C_3 C_4 C_5
End
